cliques=[{20,0,12},{5,1,42},{49,22,2},{20,62,3},{4,53,54},{5,1,42},{3,6},{4,7},{62,3,8},{31,66,9},{51,63,10},{62,11,22},{20,62,12},{13,1,65},{14,19,54},{41,15},{31,16,66},{68,57,17},{59,18},{19,21,23},{20,62,3},{25,21,52},{62,11,22},{19,21,23},{58,10,24},{25,31,52},{41,58,26},{57,27},{38,28},{49,29,47},{59,30},{25,31,52},{25,32},{5,33,46},{34,51},{4,35},{13,48,36},{22,47,37},{34,38},{41,58,39},{20,40},{41,58,39},{5,1,42},{68,65,43},{20,3,44},{20,45},{5,1,46},{51,22,47},{48,13,36},{49,22,66},{53,54,50},{41,51,63},{25,31,52},{4,53,54},{4,53,54},{6,40,55},{57,56,17},{68,57,58},{41,58,39},{59,18},{41,60},{68,17,61},{20,62,3},{41,51,63},{1,64},{13,1,65},{31,16,66},{62,11,67},{68,57,58},{39,69}];
nr_cliques=70;
